* ENCODING=ISO-8859-1
NAME          CPLEX
ROWS
 N  obj1    
 G  c1      
 G  c2      
 G  c3      
 G  c4      
 G  c5      
 G  c6      
 G  c7      
 G  c8      
 G  c9      
 G  c10     
 G  c11     
 G  c12     
 G  c13     
 G  c14     
 G  c15     
 G  c16     
 G  c17     
 G  c18     
 G  c19     
 G  c20     
 G  c21     
 G  c22     
 G  c23     
 G  c24     
 G  c25     
 G  c26     
 G  c27     
 G  c28     
 G  c29     
 G  c30     
 G  c31     
 G  c32     
 G  c33     
 G  c34     
 G  c35     
 G  c36     
 G  c37     
 G  c38     
 G  c39     
 G  c40     
 G  c41     
 G  c42     
 G  c43     
 G  c44     
 G  c45     
 G  c46     
 G  c47     
 G  c48     
 G  c49     
 G  c50     
 G  c51     
 G  c52     
 G  c53     
 G  c54     
 G  c55     
 G  c56     
 G  c57     
 G  c58     
 G  c59     
 G  c60     
COLUMNS
    MARK0000  'MARKER'                 'INTORG'
    x1        obj1                            1
    x1        c12                           163
    x1        c14                           566
    x1        c15                           607
    x1        c19                           230
    x1        c25                           955
    x2        obj1                            1
    x2        c17                           708
    x2        c20                           156
    x2        c22                           225
    x2        c31                           534
    x2        c34                           332
    x2        c47                           766
    x3        obj1                            1
    x3        c30                           240
    x3        c40                           480
    x3        c49                           870
    x3        c56                           794
    x4        obj1                            1
    x4        c5                            346
    x4        c23                           748
    x4        c24                           940
    x4        c25                           863
    x4        c50                           918
    x4        c58                           144
    x5        obj1                            1
    x5        c3                            873
    x5        c12                           829
    x5        c20                           453
    x5        c22                           893
    x5        c30                           190
    x5        c34                           601
    x5        c59                           115
    x6        obj1                            1
    x6        c6                            107
    x6        c15                           764
    x6        c17                           372
    x6        c20                           673
    x6        c42                           233
    x6        c47                           751
    x6        c58                           705
    x7        obj1                            1
    x7        c12                           321
    x7        c17                           600
    x7        c20                           376
    x7        c49                           449
    x7        c50                           913
    x8        obj1                            1
    x8        c17                           522
    x8        c25                           831
    x8        c36                           879
    x8        c43                           410
    x8        c47                           318
    x8        c51                           502
    x8        c52                           624
    x9        obj1                            1
    x9        c2                            221
    x9        c11                           669
    x9        c19                           899
    x10       obj1                            1
    x10       c5                            151
    x10       c7                            590
    x10       c10                           808
    x10       c23                           557
    x10       c36                           717
    x10       c42                           212
    x10       c53                           399
    x10       c57                           197
    x10       c58                           726
    x10       c59                           869
    x11       obj1                            1
    x11       c14                           111
    x11       c23                           612
    x11       c25                           889
    x11       c28                           858
    x11       c31                           554
    x11       c34                           119
    x11       c43                           590
    x12       obj1                            1
    x12       c2                            248
    x12       c27                           206
    x12       c28                           759
    x12       c35                           358
    x12       c43                           264
    x12       c48                           672
    x13       obj1                            1
    x13       c10                           501
    x13       c18                           282
    x13       c40                           979
    x14       obj1                            1
    x14       c23                           572
    x14       c28                           447
    x14       c34                           772
    x14       c43                           433
    x14       c53                           695
    x15       obj1                            1
    x15       c6                            520
    x15       c9                            295
    x15       c21                           676
    x15       c30                           208
    x15       c36                           395
    x15       c46                           989
    x15       c55                           763
    x15       c56                           678
    x16       obj1                            1
    x16       c11                           681
    x16       c19                           100
    x16       c27                           778
    x16       c31                           271
    x16       c32                           566
    x16       c34                           704
    x16       c42                           659
    x16       c50                           578
    x16       c53                           355
    x16       c54                           850
    x16       c58                           467
    x17       obj1                            1
    x17       c10                           598
    x17       c19                           758
    x17       c51                           689
    x17       c52                           886
    x18       obj1                            1
    x18       c4                            789
    x18       c5                            328
    x18       c17                           201
    x18       c19                           716
    x18       c57                           224
    x19       obj1                            1
    x19       c12                           776
    x19       c13                           587
    x19       c14                           659
    x19       c20                           955
    x19       c26                           465
    x19       c28                           219
    x19       c42                           562
    x20       obj1                            1
    x20       c19                           808
    x20       c22                           212
    x21       obj1                            1
    x21       c38                           841
    x21       c58                           382
    x22       obj1                            1
    x22       c19                           676
    x22       c32                           601
    x23       obj1                            1
    x23       c4                            266
    x23       c7                            762
    x23       c16                           563
    x23       c24                           782
    x23       c35                           274
    x23       c46                           994
    x23       c52                           681
    x23       c59                           989
    x24       obj1                            1
    x24       c12                           550
    x24       c29                           789
    x24       c32                           717
    x24       c56                           279
    x25       obj1                            1
    x25       c1                            845
    x25       c14                           159
    x25       c28                           538
    x25       c30                           790
    x25       c39                           511
    x25       c42                           971
    x25       c46                           455
    x26       obj1                            1
    x26       c12                           614
    x26       c24                           161
    x26       c37                           825
    x26       c39                           715
    x26       c53                           898
    x27       obj1                            1
    x27       c1                            279
    x27       c5                            696
    x27       c10                           676
    x27       c14                           849
    x27       c18                           240
    x27       c27                           531
    x27       c48                           476
    x28       obj1                            1
    x28       c2                            211
    x28       c8                            378
    x28       c9                            590
    x28       c12                           778
    x28       c14                           378
    x28       c37                           455
    x28       c39                           182
    x28       c57                           272
    x28       c60                           752
    x29       obj1                            1
    x29       c6                            214
    x29       c20                           810
    x29       c29                           275
    x29       c31                           251
    x29       c33                           226
    x29       c34                           931
    x29       c52                           679
    x29       c59                           828
    x30       obj1                            1
    x30       c9                            259
    x30       c13                           775
    x30       c21                           363
    x30       c26                           956
    x30       c27                           861
    x30       c28                           287
    x30       c37                           604
    x31       obj1                            1
    x31       c38                           617
    x31       c48                           542
    x32       obj1                            1
    x32       c11                           314
    x32       c25                           254
    x32       c26                           671
    x32       c34                           554
    x32       c38                           281
    x32       c41                           774
    x32       c54                           606
    x33       obj1                            1
    x33       c2                            865
    x33       c13                           785
    x33       c14                           320
    x33       c26                           846
    x33       c30                           229
    x33       c32                           110
    x33       c33                           432
    x33       c35                           813
    x33       c40                           449
    x33       c46                           190
    x33       c53                           448
    x34       obj1                            1
    x34       c1                            610
    x34       c11                           781
    x34       c29                           948
    x34       c44                           310
    x34       c50                           471
    x35       obj1                            1
    x35       c25                           346
    x35       c28                           501
    x35       c47                           658
    x35       c53                           712
    x35       c57                           296
    x35       c59                           151
    x36       obj1                            1
    x36       c18                           175
    x36       c26                           106
    x36       c28                           653
    x36       c32                           935
    x36       c37                           504
    x36       c43                           403
    x36       c48                           955
    x36       c50                           775
    x36       c54                           796
    x37       obj1                            1
    x37       c10                           615
    x37       c15                           717
    x37       c26                           557
    x37       c46                           479
    x37       c49                           616
    x37       c51                           639
    x38       obj1                            1
    x38       c11                           318
    x38       c13                           125
    x38       c45                           618
    x38       c60                           493
    x39       obj1                            1
    x39       c2                            433
    x39       c17                           104
    x39       c35                           252
    x39       c43                           415
    x40       obj1                            1
    x40       c7                            155
    x41       obj1                            1
    x41       c2                            227
    x41       c8                            433
    x41       c26                           829
    x41       c33                           400
    x41       c42                           812
    x41       c47                           526
    x41       c56                           233
    x42       obj1                            1
    x42       c14                           254
    x42       c46                           929
    x42       c58                           198
    x43       obj1                            1
    x43       c7                            773
    x43       c26                           856
    x43       c27                           162
    x43       c29                           990
    x43       c30                           417
    x43       c31                           819
    x43       c36                           390
    x43       c44                           679
    x43       c58                           790
    x44       obj1                            1
    x44       c1                            143
    x44       c30                           473
    x44       c37                           740
    x44       c42                           157
    x44       c49                           291
    x44       c60                           976
    x45       obj1                            1
    x45       c4                            236
    x45       c10                           807
    x45       c36                           762
    x45       c39                           328
    x45       c54                           965
    x46       obj1                            1
    x46       c12                           310
    x46       c44                           215
    x47       obj1                            1
    x47       c10                           170
    x47       c30                           126
    x47       c51                           620
    x47       c55                           265
    x48       obj1                            1
    x48       c5                            809
    x48       c31                           254
    x48       c36                           475
    x48       c51                           920
    x49       obj1                            1
    x49       c16                           903
    x49       c17                           300
    x49       c24                           459
    x49       c45                           862
    x49       c46                           177
    x49       c50                           423
    x49       c54                           613
    x49       c58                           214
    x50       obj1                            1
    x50       c6                            400
    x50       c9                            529
    x50       c52                           790
    x50       c53                           726
    x50       c55                           529
    x51       obj1                            1
    x51       c4                            842
    x51       c8                            183
    x51       c10                           517
    x51       c16                           545
    x51       c23                           531
    x51       c25                           695
    x51       c42                           787
    x52       obj1                            1
    x52       c19                           128
    x52       c27                           353
    x52       c33                           493
    x52       c35                           978
    x52       c36                           253
    x52       c49                           633
    x52       c52                           393
    x53       obj1                            1
    x53       c2                            238
    x53       c6                            575
    x53       c36                           522
    x53       c50                           973
    x53       c57                           994
    x54       obj1                            1
    x54       c5                            967
    x54       c15                           233
    x54       c53                           847
    x55       obj1                            1
    x55       c3                            292
    x55       c5                            463
    x55       c9                            808
    x55       c16                           526
    x55       c18                           804
    x55       c27                           383
    x55       c29                           549
    x55       c31                           171
    x55       c35                           701
    x55       c36                           149
    x56       obj1                            1
    x56       c6                            481
    x56       c11                           726
    x56       c30                           535
    x56       c58                           627
    x57       obj1                            1
    x57       c6                            861
    x57       c19                           106
    x57       c21                           155
    x57       c25                           923
    x57       c46                           651
    x57       c50                           976
    x57       c52                           671
    x57       c54                           829
    x58       obj1                            1
    x58       c3                            711
    x58       c5                            927
    x58       c25                           685
    x58       c27                           337
    x58       c42                           356
    x58       c45                           566
    x58       c50                           358
    x58       c55                           907
    x59       obj1                            1
    x59       c4                            322
    x59       c13                           487
    x59       c17                           492
    x59       c37                           545
    x59       c41                           171
    x59       c48                           588
    x60       obj1                            1
    x60       c8                            781
    x60       c10                           516
    x60       c17                           284
    x60       c41                           227
    x60       c48                           750
    x60       c51                           373
    x60       c56                           404
    MARK0001  'MARKER'                 'INTEND'
RHS
    rhs       c1                            939
    rhs       c2                           1222
    rhs       c3                            938
    rhs       c4                           1228
    rhs       c5                           2344
    rhs       c6                           1579
    rhs       c7                           1140
    rhs       c8                            888
    rhs       c9                           1241
    rhs       c10                          2604
    rhs       c11                          1745
    rhs       c12                          2171
    rhs       c13                          1380
    rhs       c14                          1648
    rhs       c15                          1161
    rhs       c16                          1269
    rhs       c17                          1792
    rhs       c18                           751
    rhs       c19                          2211
    rhs       c20                          1712
    rhs       c21                           597
    rhs       c22                           665
    rhs       c23                          1510
    rhs       c24                          1171
    rhs       c25                          3221
    rhs       c26                          2643
    rhs       c27                          1806
    rhs       c28                          2131
    rhs       c29                          1776
    rhs       c30                          1604
    rhs       c31                          1427
    rhs       c32                          1465
    rhs       c33                           776
    rhs       c34                          2007
    rhs       c35                          1688
    rhs       c36                          2271
    rhs       c37                          1837
    rhs       c38                           870
    rhs       c39                           868
    rhs       c40                           954
    rhs       c41                           586
    rhs       c42                          2375
    rhs       c43                          1258
    rhs       c44                           602
    rhs       c45                          1023
    rhs       c46                          2432
    rhs       c47                          1510
    rhs       c48                          1992
    rhs       c49                          1430
    rhs       c50                          3193
    rhs       c51                          1872
    rhs       c52                          2362
    rhs       c53                          2540
    rhs       c54                          2330
    rhs       c55                          1232
    rhs       c56                          1194
    rhs       c57                           992
    rhs       c58                          2127
    rhs       c59                          1476
    rhs       c60                          1111
BOUNDS
 LI bnd       x1        0
 LI bnd       x2        0
 LI bnd       x3        0
 LI bnd       x4        0
 LI bnd       x5        0
 LI bnd       x6        0
 LI bnd       x7        0
 LI bnd       x8        0
 LI bnd       x9        0
 LI bnd       x10       0
 LI bnd       x11       0
 LI bnd       x12       0
 LI bnd       x13       0
 LI bnd       x14       0
 LI bnd       x15       0
 LI bnd       x16       0
 LI bnd       x17       0
 LI bnd       x18       0
 LI bnd       x19       0
 LI bnd       x20       0
 LI bnd       x21       0
 LI bnd       x22       0
 LI bnd       x23       0
 LI bnd       x24       0
 LI bnd       x25       0
 LI bnd       x26       0
 LI bnd       x27       0
 LI bnd       x28       0
 LI bnd       x29       0
 LI bnd       x30       0
 LI bnd       x31       0
 LI bnd       x32       0
 LI bnd       x33       0
 LI bnd       x34       0
 LI bnd       x35       0
 LI bnd       x36       0
 LI bnd       x37       0
 LI bnd       x38       0
 LI bnd       x39       0
 LI bnd       x40       0
 LI bnd       x41       0
 LI bnd       x42       0
 LI bnd       x43       0
 LI bnd       x44       0
 LI bnd       x45       0
 LI bnd       x46       0
 LI bnd       x47       0
 LI bnd       x48       0
 LI bnd       x49       0
 LI bnd       x50       0
 LI bnd       x51       0
 LI bnd       x52       0
 LI bnd       x53       0
 LI bnd       x54       0
 LI bnd       x55       0
 LI bnd       x56       0
 LI bnd       x57       0
 LI bnd       x58       0
 LI bnd       x59       0
 LI bnd       x60       0
ENDATA
